letting n =  10
letting blocks =  [[1, 1], [1, 4], [1, 6], [1, 7], [1, 9], [1, 10], [2, 1], [2, 3], [2, 4], [2, 5], [2, 6], [2, 7], [3, 1], [3, 4], [3, 5], [3, 7], [3, 8], [3, 10], [4, 3], [4, 5], [4, 10], [5, 1], [5, 2], [5, 3], [5, 4], [5, 8], [5, 9], [6, 1], [6, 2], [6, 3], [6, 6], [6, 9], [6, 10], [7, 4], [7, 6], [8, 1], [8, 2], [8, 5], [8, 6], [8, 7], [8, 10], [9, 3], [9, 4], [9, 5], [9, 7], [9, 10], [10, 2], [10, 3], [10, 5], [10, 8]]
